
Gurobi 6.5.2 (win64) logging started 07/24/16 17:24:00


Gurobi 6.5.2 (win64) logging started 07/24/16 17:24:00

Optimize a model with 1594 rows, 669 columns and 4505 nonzeros
Coefficient statistics:
  Matrix range    [6e-08, 1e+03]
  Objective range [1e+00, 1e+00]
  Bounds range    [1e+00, 1e+00]
  RHS range       [6e-06, 1e+03]
Presolve removed 1380 rows and 447 columns
Presolve time: 0.00s
Presolved: 214 rows, 222 columns, 959 nonzeros
Variable types: 222 continuous, 0 integer (0 binary)

Root relaxation: objective 2.452864e+01, 215 iterations, 0.00 seconds

    Nodes    |    Current Node    |     Objective Bounds      |     Work
 Expl Unexpl |  Obj  Depth IntInf | Incumbent    BestBd   Gap | It/Node Time

*    0     0               0      24.5286412   24.52864  0.00%     -    0s

Explored 0 nodes (215 simplex iterations) in 0.00 seconds
Thread count was 8 (of 8 available processors)

Optimal solution found (tolerance 1.00e-04)
Best objective 2.452864117801e+01, best bound 2.452864117801e+01, gap 0.0%

Wrote requested result file 'H1\instance2\\Results2EC_Sol5.lp'

